echo

scratch_dir /scratch

start COMPOUND

title "COMPOUND"

memory 7500 mb noverify

geometry units angstrom noautosym nocenter noautoz
  load GEOMETRYFILE
end

basis "ao basis" spherical print
* library 6-311G** except P
# Sapporo QZP-2012
P    S
     42913.6498960     0.0006870
      6437.5633010     0.0053030
      1464.9914420     0.0271060
       414.2735000     0.1040650
       134.5726490     0.2851650
        47.8680200     0.4653980
        17.5111890     0.2604960
P    S
       108.6352940    -0.0395510
        32.9396260    -0.1986050
         4.4303650     1.0923540
P    S
         8.7920370     1.0000000
P    S
         2.2308020    -0.2870100
         0.3031460     1.1196960
P    S
         1.6428280     1.0000000
P    S
         0.5896710     1.0000000
P    S
         0.1415300     1.0000000
P    S
         0.0442690     1.0000000
P    P
       650.0173040     0.0063750
       153.8955650     0.0518270
        49.2114740     0.2475740
        18.2419870     0.7785960
P    P
         7.2788260     1.0000000
P    P
         2.9792130     0.7443390
         1.1967720     0.3048970
P    P
         0.6505810     1.0000000
P    P
         0.2749450     1.0000000
P    P
         0.1213470     1.0000000
P    P
         0.0536030     1.0000000
P    D
        12.4431460     0.0097420
         2.7050180     0.0622280
         0.2928830     0.9876440
P    D
        11.8303490     1.0000000
P    D
         3.8136540     1.0000000
P    D
         0.7019230     1.0000000
P    D
         0.1158140     1.0000000
P    F
        10.9549730     0.5504750
         4.1839220     0.5657210
P    F
         0.6821950     1.0000000
P    F
         0.2734300     1.0000000
P    G
         0.7095490     0.6378170
         0.3115130     0.4649910
end

charge INPUTCHARGE

dft
  xc pbe0
  odft
  mult INPUTMULT
  print "final vectors analysis"
  maxiter 500
  mulliken
  direct
  max_ovl
  vectors input COMPOUND.movecs swap beta 1 HIGHESTOCCUPIEDBETA output COMPOUND-swap.movecs
end

task dft

tddft
  notriplet
  cis
  nroots HIGHESTOCCUPIEDBETA 
#  ecut -77.0
end

task tddft
